# shell test for rotation

variable        l0 equal 1.0
variable        rho equal 7.3e-6
variable        E equal 1 # Young's modulus
variable        nu equal 0.33
variable        t equal 1.0 # shell thickness
variable        smax equal 0.02
variable        syield equal 0.1
variable        G0 equal -1
variable        visc equal 1.0
variable        vel equal 0.0001
variable        h equal 4.2
# ----
variable        kbend equal 4*(${E}*${t}^3)/(12.0*(1.0-${nu}^2))
variable        c0 equal sqrt(${E}/${rho})
variable        dt equal 0.1*${h}/${c0}
print           "sound speed is ${c0}, CFL timestep is ${dt}"
variable        skin equal 1.0 # Verlet list range

units		si
dimension       3
boundary        s s s
atom_style      smd
neighbor        ${skin} bin
comm_modify     vel yes cutoff 30
newton          off
atom_modify     map array

read_data       tris.data
set             group all mol 1000
set             group all diameter 20.0

# clamp group
variable        z0 equal bound(all,zmin)+10.0
region          clamp block EDGE EDGE EDGE EDGE EDGE ${z0} units box
group           clamp region clamp

pair_style      pdgcg/shells
pair_coeff      * * ${E} ${kbend} ${smax} ${G0} ${visc} ${syield}

compute         crad all smd/contact_radius
compute         eint all smd/internal_energy
compute         alleint all reduce sum c_eint
variable        etot equal ke+c_alleint+pe
compute         sumF clamp reduce sum fz
variable        d equal time*${vel}
variable        I equal 1.0*${t}^3/12.0 
variable        L equal 4.0
variable        stiff_theory equal 3.0*${E}*${I}/${L}^3
variable        stiff_expt equal c_sumF/(v_d+1.0e-8)
compute         damage all pdgcg/damage
 
dump            dump_id all custom 100 dump.LAMMPS id type x y z &
                fx fy fz vx vy vz c_crad c_damage
dump_modify     dump_id first yes

#
# time integration
timestep        ${dt}
variable        nrun equal 10000
print           "running for ${nrun} timesteps"


velocity        all set 0 0 10 units box
fix		force_fix clamp setforce NULL NULL 0
fix             integrate_fix all nve
variable        sumF equal c_sumF
fix             fd_curve all print 10 "${d} ${sumF}" file force_displacement.dat screen no
#fix             1 all viscous 0.001
fix             zwalls all wall/reflect zhi 273 units box
thermo          100
thermo_style    custom step ke c_sumF v_stiff_theory v_stiff_expt v_d
#thermo_modify lost ignore
run             ${nrun}

velocity        all set 0 0 0 units box
unfix           force_fix           
run             40000
