# TLSPH example: elongate a 2d strip of elastic material py pulling its ends apart

# define initial parameters
variable        l0 equal 1.0 # lattice spacing for creating particles
variable        rho equal 10 # initial mass density
variable        E equal 1.0 # Young's modulus
variable        nu equal 0.3 # Poisson ratio
variable        sigy equal 1.0
variable        h equal 3.01*${l0} # SPH smoothing kernel diameter
variable        vol_one equal ${l0}^2 # volume of one particle
variable        mass_one equal ${vol_one}*${rho} # mass of one particle
variable        skin equal 0.5*${l0} # Verlet list range
variable        c0 equal sqrt(${E}/${rho})
variable        dtCFL equal 0.1*${h}/sqrt(${E}/${rho})

units           si # si means: a consistent system of units is used. Here: mm / GPa / ms
dimension       2 # this is a 2d plane-strain simulation
boundary        sm sm p # simulation box boundaries
atom_style      smd 
neighbor        ${skin} bin
#neigh_modify    every 10 delay 0 check yes # re-build neighbor list every 10 steps
neigh_modify once yes
newton          off # required for SMD simulations!
comm_modify     vel yes # required for SMD simulations!

# create simulation box and particles
lattice         sq ${l0}
region          box block -10 10 -10 10 -0.01 0.01 units box
create_box      1 box
create_atoms    1 box
set             group all mass ${mass_one}
set             group all volume ${vol_one}
set             group all diameter ${h} # set SPH kernel radius

pair_style      ulsph
pair_coeff      1 1 *COMMON ${rho} ${c0} 1.0 1 &
		*LINEAR_PLASTIC ${E} ${nu} ${sigy}&
	        *END

compute         S all smd/ulsph_stress # Cauchy stress tensor
compute         D all smd/ulsph_strain_rate
compute         nn all smd/ulsph_num_neighs # number of neighbors for each particle

dump            dump_id all custom 1 dump.LAMMPS id type x y z &
                c_S[1] c_S[2] c_S[3] c_S[4] c_S[5] c_S[6] c_nn &
		c_D[1] c_D[2] c_D[4] radius &
		fx fy fz

dump_modify     dump_id first yes

thermo 1
thermo_style    custom step dt

# apply velocity profile
velocity        all ramp vx -0.1 0.1 x -10 10 units box

fix             force_fix all setforce 0 0 0
fix             integration_fix all smd/integrate_ulsph 
timestep         ${dtCFL}
run              205

