#processors      4 1 1
variable        l0 equal 0.05
variable        rho equal 1000
variable        h equal 2.5*${l0}
variable        c0 equal 10.0
variable        visc equal 0.1
variable        Cp equal 1.0
# ----
variable        dt equal 0.125*${h}/${c0}
print           "sound speed is ${c0}, CFL timestep is ${dt}"
variable        skin equal 0.5*${h} # Verlet list range
variable        vol_one equal ${l0}^2
variable        mass_one equal ${vol_one}*${rho}

units		si
dimension       2
boundary        sm sm p
atom_style      smd
comm_style      tiled
neighbor        ${skin} bin
neigh_modify    every 5 delay 0 check yes # only build neighbor list if particle has moved half the skin distance
comm_modify     vel yes
newton          off

region          box block 0 6 0 4 -0.01 0.01 units box
create_box      1 box
region          water block 0 1 0 4 EDGE EDGE units box
region          bc block 0.15 5.85 0.15 4 -0.01 0.01 units box side out
region          particles union 2 water bc
lattice         sq ${l0}
create_atoms    1 region particles

group           bc region bc
group           water region water

set             group all meso_rho ${rho}
set             group all diameter ${h}
set             group all contact_radius ${l0}
set             group all mass ${mass_one}
set             group all volume ${vol_one}

pair_style      ulsph
pair_coeff      1 1 *COMMON ${rho} ${c0} ${visc} ${Cp} &
		*EOS_TAIT 7.0 &
	        *END

compute         eint all smd/internal_energy
compute         rho all smd/rho
compute         alleint all reduce sum c_eint
variable        etot equal ke+c_alleint
compute         contact_radius all smd/contact_radius
compute         fS all smd/ulsph_stress
compute         aS all stress/atom NULL pair
compute         nn all smd/ulsph_num_neighs

#
variable        nrun equal round(10.0/${dt})
print "running for ${nrun} steps"

variable        dumpFreq equal 100 #round(${nrun}/100)
dump            dump_id all custom ${dumpFreq} dump.LAMMPS id type x y z &
                fx fy vx vy c_eint &
                c_contact_radius mol c_rho &
                c_fS[1] c_fS[2] c_fS[4] mass radius c_nn
dump_modify     dump_id first yes

thermo          100
thermo_style    custom step ke pe v_etot c_alleint
thermo_modify   lost ignore

#fix             rhofix all smd/adjust_rho 1000 1
#run             1000
#unfix           rhofix

fix             dtfix all smd/adjust_dt 5 0.1

thermo          100
thermo_style    custom step ke pe v_etot c_alleint f_dtfix dt
thermo_modify   lost ignore

fix             gfix water gravity -9.81 vector 0 1 0 # add gravity. This fix also computes potential energy of mass in gravity field.
fix             bc_fix bc setforce 0 0 0
fix             integration_fix_resin all smd/integrate_ulsph 1.5e3 xsph 1.3
fix             10 all balance 50 0.9 rcb
run             20000


