# create flow by heating and cooling
variable        l0 equal 0.25 # initial particle lattice spacing
variable        rho equal 1.0e-6 # mass density ulsph
variable        h equal 2.5*${l0} # SPH kernel diameter
variable        c0 equal 1.0 # speed of sound for ulsph
variable        contact_stiffness equal 0.5*${c0}^2*${rho} # contact force amplitude
variable        skin equal ${l0} # Verlet list range
variable        vol_one equal ${l0}^3 # initial particle volume for 2d simulation
variable        cr0 equal ${l0}/2
variable        dtcfl equal 0.1*${l0}/${c0}

units		si
dimension       3
boundary        f f f
atom_style      smd
comm_style      tiled
neighbor        ${skin} bin
neigh_modify    every 5 delay 0 check yes exclude type 2 2 one 10000
comm_modify     vel yes
newton          off
atom_modify     map array


# create simulation box, a container, and a ulsph column
region          box block -30 30 -30 30 -30 30 units box
create_box      2 box

lattice         sc ${l0}
region          particles sphere 0 0 0 2 units box
create_atoms    1 region particles
#create_atoms    1 single -3 -3 10 units box
group           particles type 1

set             group all volume ${vol_one}
set             group all diameter ${h}
set             group all density ${rho}
set             group all meso_rho ${rho}
pair_style      hybrid/overlay ulsph  smd/tri_surface 1.0
pair_coeff      1 1 ulsph *COMMON ${rho} ${c0} 1.0 1 &
		*EOS_TAIT 2 &
	        *END
pair_coeff      2 2 none
pair_coeff      1 2 smd/tri_surface ${contact_stiffness} 


thermo          100
thermo_style    custom step dt ke pe
dump            dump_id all custom 100 dump.LAMMPS id type x y z &
                fx fy fz vx vy vz mol proc &
                mass radius 
dump_modify     dump_id first yes

velocity        particles set 0 0.11 0 units box


fix             stl_surface_fix all smd/wall_surface ellipsoid.stl 2
run             0
group           surface type 2

balance         0.9 rcb

timestep        0.03
#fix             dtfix all smd/adjust_dt 0.1
fix             integration_fix particles smd/integrate_ulsph 
fix             gfix particles gravity 9.81e-3 vector 0 1 0
fix             move_fix surface move linear 0.1 0 0 units box

run             10000



