# create flow by heating and cooling
variable        l0 equal 0.25 # initial particle lattice spacing
variable        rho equal 1 # mass density ulsph
variable        h equal 2.5*${l0} # SPH kernel diameter
variable        c0 equal 1.0 # speed of sound for ulsph
variable        contact_stiffness equal 0.5*${c0}^2*${rho} # contact force amplitude
variable        skin equal 0.1*${l0} # Verlet list range
variable        vol_one equal ${l0}^2 # initial particle volume for 2d simulation
variable        cr0 equal ${l0}/2
variable        dtcfl equal 0.1*${l0}/${c0}

units		si
dimension       3
boundary        f f f
atom_style      smd
comm_style      tiled
neighbor        ${skin} bin
neigh_modify    every 5 delay 0 check yes binsize 1.0 exclude type 2 2
comm_modify     vel yes
newton          off
atom_modify     map hash sort 1000 1.0


# create simulation box, a container, and a ulsph column
region          box block -100 100 -100 100 -10 10 units box
create_box      2 box

lattice sc      ${l0}
region          particles sphere 0 0 0 8.0
create_atoms    1 region particles
#create_atoms    1 single 25 25 4 units box
group           particles type 1

set             group all volume ${vol_one}
set             group all diameter 1.0
set             group all density ${rho}

fix             stl_surface_fix all smd/wall_surface ellipsoid.stl 2 65535
run             0
group           mesh type 2
change_box      all boundary s s s


pair_style      hybrid/overlay ulsph  smd/tri_surface 1.0
pair_coeff      1 1 ulsph *COMMON ${rho} ${c0} 1.0 1 0 &
		*EOS_TAIT 2 &
	        *END
pair_coeff      2 2 none
pair_coeff      1 2 smd/tri_surface ${contact_stiffness} 


thermo          10
thermo_style    custom step dt ke pe
dump            dump_id all custom 10 dump.LAMMPS id type x y z &
                fx fy fz vx vy vz mol &
                mass radius 
dump_modify     dump_id first yes

velocity        particles set 0 0.11 0 units box

timestep        ${dtcfl}
fix             dtfi all smd/adjust_dt 0.1
fix             gfix particles gravity 9.81e-3 vector 0 1 0
fix             1 particles smd/integrate_ulsph xsph adjust_radius 1.2
fix             mesh_fix mesh smd/move_tri_surf *ROTATE 0 0 0 0 1 0 10.0

run             30000



