#processors      4 1 1
variable        rho equal 2700.0e-9
variable        l0 equal 1.0
variable        vol_one equal ${l0}^3
variable        mass_one equal ${vol_one}*${rho}
variable        crad equal 0.5*${l0}
variable        h equal 2.01*${l0}
variable        E equal 10 # Young's modulus
variable        nu equal 0.3 # Poisson ratio
variable        sigy equal 0.1
variable        vel equal 20.0
variable        hg equal 0*${sigy}/${E}
# ----
variable        c0 equal sqrt(${E}/${rho})
variable        dt equal 0.125*${h}/${c0}
print           "sound speed is ${c0}, CFL timestep is ${dt}"
variable        skin equal ${h} # Verlet list range

units		si
dimension       3
boundary        s s s
atom_style      tlsph
#atom_modify	map array
neighbor        ${skin} bin
neigh_modify    every 5 delay 0 check yes # only build neighbor list if particle has moved half the skin distance
comm_modify     vel yes
newton          off

lattice         sc ${l0}
#create a box of dimensions xx mm^3
region          box block -5 105 -15 15 -15 15 units box
create_box      1 box

# create tension specimen
region          cyl cylinder x 0 0 5 EDGE EDGE units box
region          cl  cone x 0 0 10 5 -5 30 units box
region          cr  cone x 0 0 5 10 70 105 units box
region          specimen union 3 cyl cl cr
create_atoms    1 region specimen
displace_atoms  all random 0.1 0.1 0.1 220578 units box

# create regions where specimen is clamped
region          BCL block EDGE 0 EDGE EDGE EDGE EDGE units box
region          BCR block 100 EDGE EDGE EDGE EDGE EDGE units box
group           BCL region BCL
group           BCR region BCR

set             group all diameter ${h}
set             group all contact_radius ${crad}
set             group all mass ${mass_one}
set             group all volume ${vol_one}
set             group all mol 1

velocity        BCL set -${vel} 0.0 0.0 sum no units box
velocity        BCR set  ${vel} 0.0 0.0 sum no units box

pair_style      tlsph
#                   strength EOS             c0    E     nu   hg    visc sigy
pair_coeff      1 1 linear            linear ${c0} ${E} ${nu} ${hg} 0.0  ${sigy}

compute         F all tlsph/defgrad
compute         E all tlsph/strain
compute         P all tlsph/eff_plastic_strain
compute         S all tlsph/stress
compute         d all tlsph/damage
compute         nn all tlsph/num_neighs
compute         contact_radius all sph/contact_radius
compute         eint all sph/e
compute         alleint all reduce sum c_eint
variable        etot equal ke+c_alleint

thermo          100
thermo_style    custom step ke pe v_etot c_alleint
thermo_modify   lost ignore

balance         1.0 shift xy 20 1.0

# time integration
timestep        ${dt}
fix             integration_fix all tlsph/integrate 1.5e3
fix             force_fix1 BCL setforce 0 0 0
fix             force_fix2 BCR setforce 0 0 0

variable        nrun equal round((10.0/${vel})/${dt})
print "running for ${nrun} steps"

variable        dumpFreq equal round(${nrun}/100)
dump            dump_id all custom ${dumpFreq} dump.LAMMPS id type x y z &
                c_F[1]  c_F[2] c_F[3] c_F[4] c_F[5] c_F[6] c_F[7] c_F[8] c_F[9] c_F[10] &
                c_E[1] c_E[2] c_E[5] &
                c_S[1] c_S[2] c_S[5] &
                fx fy vx vy c_P c_eint &
                c_contact_radius c_nn mol

dump_modify     dump_id first yes

run             200 #${nrun}
#
#
#
