#processors      4 1 1
variable        rho equal 2700.0e-9
variable        h equal 0.82
variable        E equal 10 # Young's modulus
variable        nu equal 0.3 # Poisson ratio
variable        sigy equal 0.1
variable        vel equal 10.0
variable        hg equal 25.0
# ----
variable        c0 equal sqrt(${E}/${rho})
variable        dt equal 0.125*${h}/${c0}
print           "sound speed is ${c0}, CFL timestep is ${dt}"
variable        skin equal 1.0*${h} # Verlet list range
variable        contact_stiffness equal 1*${E}

units		si
dimension       3
boundary        s s s
atom_style      tlsph
comm_style      tiled
neighbor        ${skin} bin
neigh_modify    every 1 delay 0 check no # only build neighbor list if particle has moved half the skin distance
comm_modify     vel yes
newton          off

read_data       h2_adjusted.data
variable        xmin equal bound(all,xmin)
variable        xminplus equal ${xmin}+15.0
variable        xmax equal bound(all,xmax)
variable        xmaxminus equal ${xmax}-15.0
region          bot block EDGE ${xminplus} EDGE EDGE EDGE EDGE units box
region          top block ${xmaxminus} EDGE EDGE EDGE EDGE EDGE units box
group           top region top
group           bot region bot

velocity        top set  ${vel} 0 0 sum no units box
velocity        bot set -${vel} 0 0 sum no units box

pair_style      tlsph
#                         strength EOS                 c0    E     nu   hg    visc    sigy     max.strain    
pair_coeff      * * linearplastic            linear ${c0} ${E} ${nu} ${hg}    0.10  ${sigy}    1.00

compute         F all tlsph/defgrad
compute         E all tlsph/strain
compute         P all tlsph/eff_plastic_strain
compute         S all tlsph/stress
compute         d all tlsph/damage
compute         nn all tlsph/num_neighs
compute         contact_radius all sph/contact_radius
compute         eint all sph/e
compute         alleint all reduce sum c_eint
#compute         sumforce BCL reduce sum fx
variable        etot equal ke+c_alleint+pe


balance          1.0 rcb
#balance         1.0 shift xy 20 1.0

# time integration
timestep        ${dt}
variable        maxdist equal 0.0025*${h}
fix             dtfix all dt/reset 5 NULL ${dt} ${maxdist} units box
fix             force_fix1 top setforce 0 0 0
fix             force_fix2 bot setforce 0 0 0
fix             integration_fix all tlsph/integrate 1.5e3 xsph


variable        nrun equal round((10.0/${vel})/${dt})
print "running for ${nrun} steps"

variable        dumpFreq equal round(${nrun}/1000)
dump            dump_id all custom ${dumpFreq} dump.LAMMPS id type x y z &
                c_F[1]  c_F[2] c_F[3] c_F[4] c_F[5] c_F[6] c_F[7] c_F[8] c_F[9] c_F[10] &
                c_E[1] c_E[2] c_E[3] c_E[4] c_E[5] c_E[6] &
                c_S[1] c_S[2] c_S[3] c_S[4] c_S[5] c_S[6] &
                fx fy fz vx vy vz c_P c_eint &
                c_contact_radius c_nn mol c_d mass

dump_modify     dump_id first yes

thermo          100
thermo_style    custom step ke pe v_etot c_alleint dt #f_force_fix1[1]
#thermo_modify   lost ignore

run             ${nrun}
#
#
#
