#processors      4 1 1
variable        rho equal 2700.0e-9
variable        h equal 0.82
variable        E equal 10 # Young's modulus
variable        nu equal 0.3 # Poisson ratio
variable        sigy equal 0.1
variable        vel equal 10.0
variable        hg equal 25.0
# ----
variable        c0 equal sqrt(${E}/${rho})
variable        dt equal 0.125*${h}/${c0}
print           "sound speed is ${c0}, CFL timestep is ${dt}"
variable        skin equal 1.0*${h} # Verlet list range
variable        contact_stiffness equal 1*${E}

units		si
dimension       3
boundary        s s s
atom_style      tlsph
comm_style      tiled
neighbor        ${skin} bin
neigh_modify    every 1 delay 0 check no # only build neighbor list if particle has moved half the skin distance
comm_modify     vel yes
newton          off

read_data       h4_adjusted.data
variable        xmin equal bound(all,xmin)
variable        xminplus equal ${xmin}+15.0
variable        xmax equal bound(all,xmax)
variable        xmaxminus equal ${xmax}-15.0
region          bot block EDGE ${xminplus} EDGE EDGE EDGE EDGE units box
region          top block ${xmaxminus} EDGE EDGE EDGE EDGE EDGE units box
group           top region top
group           bot region bot

velocity        top set  ${vel} 0 0 sum no units box
velocity        bot set -${vel} 0 0 sum no units box

pair_style      tlsph
#                         strength EOS                 c0    E     nu   hg    sigy     max.strain  max.stress Q1   Q2
pair_coeff      * * linear                   linear ${c0} ${E} ${nu} ${hg}    ${sigy}    0.08        0.0      0.1 0.0

compute         E all sph2/tlsph_strain
compute         P all sph2/plastic_strain
compute         S all sph2/tlsph_stress
compute         d all sph2/damage
compute         nn all sph2/tlsph_num_neighs
compute         contact_radius all sph2/contact_radius
compute         eint all sph2/internal_energy
compute         alleint all reduce sum c_eint
#compute         sumforce BCL reduce sum fx
variable        etot equal ke+c_alleint+pe


balance          1.0 rcb
#balance         1.0 shift xy 20 1.0

# time integration
timestep        ${dt}
variable        maxdist equal 0.0025*${h}
fix             dtfix all sph2/tlsph_dt_reset 5 NULL NULL ${maxdist} units box
fix             force_fix1 top setforce 0 0 0
fix             force_fix2 bot setforce 0 0 0
fix             integration_fix all sph2/integrate_tlsph 1.5e3 xsph


variable        nrun equal round((10.0/${vel})/${dt})
print "running for ${nrun} steps"

variable        dumpFreq equal round(${nrun}/1000)
dump            dump_id all custom ${dumpFreq} dump.LAMMPS id type x y z &
                c_E[1] c_E[2] c_E[3] c_E[4] c_E[5] c_E[6] &
                c_S[1] c_S[2] c_S[3] c_S[4] c_S[5] c_S[6] &
                fx fy fz vx vy vz c_P c_eint &
                c_contact_radius c_nn mol c_d mass

dump_modify     dump_id first yes

thermo          100
thermo_style    custom step ke pe v_etot c_alleint dt f_force_fix1[1]
#thermo_modify   lost ignore

run             ${nrun}
#
#
#
