# impact of water (SPH) sphere against glass plate (PERI/GCG)
# units: mm - ms - GPa
processors      1 2 2

variable        h equal 5.0

# water properties
variable        rho_w equal 2000.0e-9
variable        c0_w equal 1000

# glass plate properties
#variable        c0_g  equal 100.0
#variable        rho_g equal 2000.0e-9
#variable        K_g equal ${rho_g}*(${c0_g}^2)

variable        K_g equal 2.6 # Makrolon
variable        rho_g equal 1.2e-6
variable        visc_g equal 0.05
variable        c0_g equal sqrt(${K_g}/${rho_g})

# contact stiffness between water and glass
variable        K_w equal (${c0_w}^2)*${rho_w}
variable        contact_stiffness equal 1*${K_w}
# ----
variable        c0 equal ${c0_w}
print           "Kw=${K_w}, K_g=${K_g}"
variable        dtCFL equal 0.1*${h}/${c0}

variable        skin equal 15 # Verlet list range

units		si
dimension       3
boundary        s s s
atom_style      tlsph
comm_style      tiled
atom_modify     map array
neighbor        ${skin} bin
comm_modify     vel yes cutoff 45
newton          off
neigh_modify    every 1 delay 0 check no #binsize 20.0

read_data       bird_strike.data


group           glass type 2
group           water type 1
set             group water mol 1
set             group glass mol 1000 # PD bonded particles must have 999 < mol < 1999

set             group water meso_rho ${rho_w}
set             group water contact_radius 10.0
#velocity        all set 100 100 100 units box


# fist run: equilibrate water sphere

pair_style      hybrid/overlay sph/fluid
#                              EOS           exponent c0_ref  rho_ref  visc Q1 Q2
pair_coeff      1 1 sph/fluid  tait          7.0      ${c0_w} ${rho_w} 0.0  1  0
pair_coeff      1 2 none
pair_coeff      2 2 none



#thermo          10

#run             100
#unfix           rhofix

neigh_modify    every 10 delay 0 check yes

compute         peatom all pe/atom

compute          rho water sph/rho
compute          eint all sph/e
compute          ect all reduce sum c_eint
variable        te equal ke+c_ect+pe
#compute         S all stress/atom
#compute         nn glass peri_nneigh/atom
compute         contact_radius all sph/contact_radius

dump            dump_id1 all custom 100 dump_watereq.LAMMPS id type mol x y z &
                fx fy fz vx vy vz c_contact_radius c_rho c_peatom c_eint mass #c_D
dump_modify     dump_id1 first yes

timestep        ${dtCFL}

fix             rhofix water sph_fluid/adjust_rho ${rho_w} 1


thermo          10
thermo_style    custom step ke pe c_ect v_te 

run             100
undump          dump_id1



pair_style      hybrid/overlay sph/fluid tlsph/ipc_hertz peri/gcg
#                              EOS           exponent c0_ref  rho_ref  visc Q1   Q2
pair_coeff      1 1 sph/fluid  tait          7.0      ${c0_w} ${rho_w} 0.0  0.10 0.0
#pair_coeff      2 2 no1ne
#                i j           bulk_modulus failure_strain GIc  viscosity initial_yield_strain
pair_coeff      2 2 peri/gcg   ${K_g}       0.25            -1.0 0.0       0.0126
pair_coeff      1 2 tlsph/ipc_hertz ${contact_stiffness}

#pair_style     peri/gcg
#pair_coeff     * * ${K_g} 0.01 0.0 0.0

#pair_style      sph/fluid
#pair_coeff      * * tait          7.0      ${c0_w} ${rho_w} 0.00

#pair_style      tlsph/ipc_hertz
#pair_coeff      * * ${contact_stiffness}

compute         D glass pdgcg/damage
 
dump            dump_id all custom 200 dump.LAMMPS id type mol x y z &
                fx fy fz vx vy vz c_contact_radius c_rho c_peatom c_eint mass c_D
dump_modify     dump_id first yes

#
# time integration
velocity        water set 0 200 0 units box
fix              intfix_solid glass tlsph/integrate -1
fix              intfix_fluid water sph_fluid/integrate -1

thermo          10
thermo_style    custom step ke pe c_ect v_te 


fix             10 all balance 50 0.9 rcb

run            50000
##run 10
