# TLSPH example: elongate a 2d strip of elastic material py pulling its ends apart

# define initial parameters
variable        l0 equal 1.0 # lattice spacing for creating particles
variable        rho equal 1 # initial mass density
variable        E equal 1.0 # Young's modulus
variable        nu equal 0.3 # Poisson ratio
variable        sigma_yield equal 0.1 # plastic yield stress for bar 2
variable        skin equal 2.0*${l0} # Verlet list range
variable        vel equal 100.0 # pull velocity

units           si # si means: a consistent system of units is used. Here: mm / GPa / ms
dimension       3 # this is a 2d plane-strain simulation
boundary        sm sm sm # simulation box boundaries
atom_style      smd
neighbor        ${skin} bin
comm_style      tiled
neigh_modify    every 10 delay 0 check yes # re-build neighbor list every 10 steps
newton          off # required for SMD simulations!
comm_modify     vel yes # required for SMD simulations!

# read particle data
read_data       cbar_adjusted.data
group           bar1 type 1
group           bar2 type 2

pair_style      hybrid/overlay tlsph smd/hertz # activate Total-Lagrangian SPH
#                                 rh0    E    nu    Q1    Q2   hg    Cp
pair_coeff      1 1 tlsph *COMMON ${rho} ${E} ${nu} 0.56  0.0  100 1.0 &
                *LINEAR_STRENGTH &
		*EOS_LINEAR &
                *END
pair_coeff      2 2 tlsph *COMMON ${rho} ${E} ${nu} 1.06  0.0  100 1.0 &
                *LINEAR_PLASTICITY ${sigma_yield} &
		*EOS_LINEAR &
                *END
pair_coeff      1 2 smd/hertz ${E}

compute         S all smd/tlsph_stress # Cauchy stress tensor
compute         nn all smd/tlsph_num_neighs # number of neighbors for each particle
compute         cr all smd/contact_radius
compute         p all smd/plastic_strain

dump            dump_id all custom 100 dump.LAMMPS id type x y z &
                c_S[1] c_S[2] c_S[3] c_S[4] c_S[5] c_S[6] c_nn c_cr proc c_p
dump_modify     dump_id first yes

# apply velocity boundary condition to top and bottom rows of particles
velocity        bar1 set 0.0 0.0  ${vel} sum no units box 
velocity        bar2 set 0.0 0.0 -${vel} sum no units box 

fix             integration_fix all smd/integrate_tlsph update xsph adjust_radius
fix             dtfix all smd/adjust_dt 5 0.1

thermo 100
thermo_style    custom step dt time ke pe

balance         1.0 rcb

run             30000
