# extrude a tlsph solid
variable        l0 equal 0.25 # initial particle lattice spacing
variable        rho equal 1.0 # mass density
variable        h equal 2.5*${l0} # SPH kernel diameter
variable        c0 equal 1.0 # speed of sound for ulsph
variable        E equal 1*${c0}^2*${rho} # actually bulk modulus
variable        sigy equal 0.05*${E} # plastic yield strength
variable        nu equal 0.3
variable        contact_stiffness equal 0.5*${E} # contact force amplitude
variable        skin equal 2*${l0} # Verlet list range
variable        vol_one equal ${l0}^3 # initial particle volume for 2d simulation
variable        cr0 equal ${l0}/2
variable        dtcfl equal 0.1*${l0}/${c0}

units		si
dimension       3
boundary        f f f
atom_style      smd
comm_style      brick
neighbor        ${skin} bin
neigh_modify    every 5 delay 0 check yes exclude type 2 2
comm_modify     vel yes
newton          off
atom_modify     map array

# create simulation box, a container, and a ulsph column
region          box block -101 2.5 -10 40 -2 2 units box
create_box      2 box

lattice         sc ${l0}
region          particles block -60 -1 -2.0 1.5 -0.75 0.75 units box
create_atoms    1 region particles
group           particles type 1
group           tlsph type 1

region          stationary block EDGE EDGE -2.1 -1.0 EDGE EDGE units box # create a region where substrate particles are constrained not to move
group           stationary region stationary # create group from above region

set             group all volume ${vol_one}
set             group all diameter ${h}
set             group all density ${rho}
set             group particles contact_radius ${cr0}
pair_style      hybrid/overlay tlsph *UPDATE_PAIRWISE 0.1 smd/tri_surface 1.0
#                                 rh0    E    nu    Q1    Q2   hg    Cp
pair_coeff      1 1 tlsph *COMMON ${rho} ${E} ${nu} 1.0  0.0   10    1.0 &
                *LINEAR_PLASTICITY ${sigy} 0.0 &
		*EOS_LINEAR &
                *END
pair_coeff      2 2 none
pair_coeff      1 2 smd/tri_surface ${contact_stiffness} 

#velocity        particles set 0 0 -0.1 units box


fix             stl_surface_fix all smd/wall_surface mtool_wide_02.stl 2 65535
run 0
group           tool molecule 65535

thermo          10
thermo_style    custom step dt ke pe lx ly lz
thermo_modify   lost warn

compute         rho particles smd/rho
compute         F all smd/triangle_vertices 
compute         nn particles smd/tlsph_num_neighs
compute         E particles smd/tlsph_strain
compute         S particles smd/tlsph_stress
compute         Edot particles smd/tlsph_strain_rate
#variable        Svm atom sqrt(c_S[1]^2+c_S[2]^2+c_S[3]^2-c_S[1]*c_S[2]-c_S[2]*c_S[3]-c_S[1]*c_S[3]+3*c_S[4]^2+3*c_S[5]^2+3*c_S[6]^2) # von mises stress
compute         damage tlsph smd/damage

dump            dump_custom all custom 100 dump.LAMMPS id type mol x y z vx vy vz c_rho c_nn &
                c_E[1] c_E[2] c_E[3] c_E[4] c_E[5] c_E[6] &
                c_Edot[1] c_Edot[2] c_Edot[3] c_Edot[4] c_Edot[5] c_Edot[6] &
                c_damage
dump_modify     dump_custom first yes

dump            dump_tool tool custom 100 dump_tool.LAMMPS id type mol x y z &
                c_F[1] c_F[2] c_F[3] c_F[4] c_F[5] c_F[6] c_F[7] c_F[8] c_F[9]
dump_modify     dump_tool first yes

run 0

balance 1.0 shift x 5 1.05

fix             dtfix all smd/adjust_dt 0.1
fix             constraint_stationary stationary setforce 0 0 0
fix             integration_fix particles smd/integrate_tlsph
#fix             gfix particles gravity -9.81e-3 vector 0 0 1
fix             boundary_fix tool smd/move_tri_surf *LINEAR -0.1 0 0
fix             balance_fix all balance 1000 1.05 shift x 10 1.05
#fix             1 particles viscous 0.00000001

run             55000



