# shell test for rotation

variable        l0 equal 1.0
variable        rho equal 1.0
variable        K equal 1 # Young's modulus
variable        smax equal 100
variable        syield equal 100
variable        G0 equal -1
variable        visc equal 0.0
# ----
variable        c0 equal 1.0
variable        dt equal 1.0e-1
print           "sound speed is ${c0}, CFL timestep is ${dt}"
variable        skin equal 0.1 # Verlet list range

units		si
dimension       3
boundary        sm sm sm
atom_style      tlsph
neighbor        ${skin} bin
comm_modify     vel yes
newton          off
atom_modify     map array

read_data       plate_5x1.data
set             group all mol 1000
set             group all mass 0.1

variable        xcenter equal xlo+0.5*(xhi-xlo)
region          left block EDGE ${xcenter} EDGE EDGE EDGE EDGE units box
group           left region left
group           right subtract all left

velocity        right set 0 0 -0.01 units box

pair_style      pdgcg/shells
pair_coeff      * * ${K} ${smax} ${G0} ${visc} ${syield}

compute         eint all sph2/internal_energy
compute         alleint all reduce sum c_eint
variable        etot equal ke+c_alleint+pe

thermo          1
thermo_style    custom step ke
 
dump            dump_id all custom 1 dump.LAMMPS id type x y z &
                fx fy fz vx vy vz 
dump_modify     dump_id first yes

#
# time integration
timestep        ${dt}
variable        nrun equal 100
print           "running for ${nrun} timesteps"

fix             integrate_fix right nve


#fix             move_fix all move rotate 0.0 0.0 0.0 1 1 1 100

run             10000

#run             ${nrun}
